40 390 
1 2 1
1 3 1
1 4 1
1 5 1
1 6 1
1 8 1
1 10 1
1 11 1
1 12 1
1 14 1
1 19 1
1 20 1
1 22 1
1 24 1
1 29 1
1 30 1
1 36 1
1 39 1
2 9 1
2 11 1
2 13 1
2 17 1
2 19 1
2 20 1
2 22 1
2 29 1
2 30 1
2 31 1
2 34 1
2 35 1
2 36 1
2 38 1
2 40 1
3 11 1
3 12 1
3 15 1
3 17 1
3 19 1
3 21 1
3 23 1
3 27 1
3 28 1
3 29 1
3 31 1
3 32 1
3 34 1
3 36 1
3 39 1
3 40 1
4 5 1
4 6 1
4 9 1
4 17 1
4 18 1
4 19 1
4 21 1
4 25 1
4 27 1
4 29 1
4 31 1
4 32 1
4 33 1
4 34 1
4 35 1
4 38 1
4 39 1
5 7 1
5 11 1
5 12 1
5 13 1
5 15 1
5 16 1
5 17 1
5 18 1
5 22 1
5 25 1
5 27 1
5 28 1
5 29 1
5 32 1
5 33 1
5 35 1
5 36 1
5 40 1
6 7 1
6 8 1
6 10 1
6 11 1
6 17 1
6 19 1
6 20 1
6 21 1
6 22 1
6 23 1
6 24 1
6 25 1
6 32 1
6 34 1
6 36 1
6 37 1
6 39 1
7 10 1
7 12 1
7 17 1
7 22 1
7 23 1
7 26 1
7 27 1
7 29 1
7 30 1
7 32 1
7 33 1
7 34 1
7 35 1
7 39 1
7 40 1
8 11 1
8 12 1
8 15 1
8 16 1
8 18 1
8 21 1
8 23 1
8 31 1
8 33 1
8 34 1
8 36 1
8 37 1
8 38 1
9 14 1
9 17 1
9 18 1
9 19 1
9 20 1
9 21 1
9 22 1
9 23 1
9 24 1
9 28 1
9 29 1
9 30 1
9 31 1
9 37 1
10 14 1
10 15 1
10 17 1
10 18 1
10 19 1
10 20 1
10 21 1
10 22 1
10 24 1
10 27 1
10 30 1
10 34 1
10 35 1
10 39 1
10 40 1
11 12 1
11 15 1
11 18 1
11 19 1
11 20 1
11 22 1
11 23 1
11 24 1
11 26 1
11 30 1
11 31 1
11 35 1
11 37 1
11 38 1
12 19 1
12 21 1
12 22 1
12 25 1
12 26 1
12 27 1
12 30 1
12 31 1
12 33 1
12 34 1
12 35 1
12 37 1
12 38 1
12 40 1
13 14 1
13 15 1
13 16 1
13 17 1
13 18 1
13 20 1
13 21 1
13 22 1
13 23 1
13 25 1
13 26 1
13 29 1
13 32 1
13 33 1
13 39 1
13 40 1
14 16 1
14 17 1
14 18 1
14 21 1
14 22 1
14 23 1
14 24 1
14 30 1
14 34 1
14 35 1
14 36 1
14 38 1
14 39 1
15 16 1
15 17 1
15 18 1
15 19 1
15 22 1
15 23 1
15 24 1
15 27 1
15 28 1
15 34 1
15 36 1
15 37 1
15 39 1
16 17 1
16 18 1
16 20 1
16 21 1
16 22 1
16 23 1
16 26 1
16 28 1
16 29 1
16 30 1
16 32 1
16 33 1
16 37 1
16 38 1
16 40 1
17 23 1
17 25 1
17 27 1
17 29 1
17 30 1
17 31 1
17 32 1
17 34 1
17 35 1
17 36 1
17 38 1
17 40 1
18 19 1
18 20 1
18 21 1
18 23 1
18 25 1
18 28 1
18 29 1
18 31 1
18 32 1
18 33 1
18 39 1
18 40 1
19 24 1
19 25 1
19 26 1
19 27 1
19 28 1
19 29 1
19 33 1
19 34 1
19 35 1
19 36 1
19 37 1
19 40 1
20 21 1
20 25 1
20 30 1
20 31 1
20 32 1
20 37 1
20 38 1
20 39 1
20 40 1
21 22 1
21 27 1
21 30 1
21 31 1
21 32 1
21 33 1
21 35 1
21 36 1
21 37 1
21 40 1
22 24 1
22 25 1
22 27 1
22 28 1
22 33 1
22 34 1
22 35 1
22 36 1
22 39 1
22 40 1
23 25 1
23 26 1
23 27 1
23 30 1
23 35 1
23 36 1
23 37 1
23 38 1
23 39 1
24 28 1
24 31 1
24 34 1
24 35 1
24 36 1
24 39 1
24 40 1
25 26 1
25 29 1
25 32 1
25 33 1
25 37 1
26 28 1
26 29 1
26 31 1
26 32 1
26 33 1
26 35 1
26 37 1
26 38 1
26 39 1
26 40 1
27 28 1
27 29 1
27 33 1
27 35 1
27 37 1
27 38 1
27 40 1
28 34 1
28 36 1
28 39 1
28 40 1
29 30 1
29 32 1
29 34 1
29 36 1
29 37 1
29 38 1
29 39 1
29 40 1
30 32 1
30 34 1
30 37 1
30 38 1
30 39 1
30 40 1
31 33 1
31 34 1
31 36 1
31 37 1
31 38 1
31 39 1
32 39 1
32 40 1
33 34 1
33 35 1
33 36 1
33 39 1
34 35 1
34 39 1
34 40 1
35 36 1
35 37 1
35 39 1
35 40 1
36 37 1
36 38 1
36 40 1
37 38 1
37 39 1
38 39 1
39 40 1
